(declare-fun x1 () Bool)
(declare-fun x2 () Bool)
(declare-fun x3 () Bool)
(declare-fun x4 () Bool)
(declare-fun x5 () Bool)
(declare-fun x6 () Bool)
(declare-fun x7 () Bool)
(declare-fun x8 () Bool)
(declare-fun x9 () Bool)
(declare-fun x10 () Bool)
(declare-fun x11 () Bool)
(declare-fun x12 () Bool)

(assert (or x1 x2))
(assert (or x1 (not x2)))
(assert (or (not x1) x3))
(assert (or (not x1) (not x3)))
(check-sat)
